60
2
0 2 3 6 7 8 9 10 11 12 13 14 15 17 19 20 21 22 23 24 25 26 27 28 29 30 34 37 38 39 41 42 45 46 47 48 50 52 53 54 55 57 58
1 3 4 5 7 11 12 13 14 16 17 18 20 21 27 31 32 33 35 36 37 40 41 43 44 49 51 52 54 56 59
